CMPL model generation - running

CMPL version: 1.11.0
Authors: Thomas Schleiff, Mike Steglich
Distributed under the GPLv3 

create model instance ...
write model instance ...
CMPL model generation - finished

Solver - running


Welcome to IBM(R) ILOG(R) CPLEX(R) Interactive Optimizer 12.7.1.0
  with Simplex, Mixed Integer & Barrier Optimizers
5725-A06 5725-A29 5724-Y48 5724-Y49 5724-Y54 5724-Y55 5655-Y21
Copyright IBM Corp. 1988, 2017.  All Rights Reserved.

Type 'help' for a list of available commands.
Type 'help' followed by a command name for more
information on commands.

CPLEX> Specified objective sense: MINIMIZE
Selected objective  name:  line[1]
Selected RHS        name:  RHS
Selected bound      name:  BOUND
Problem '/tmp/cmpl.T23360.mps' read.
Read time = 0.06 sec. (10.11 ticks)
CPLEX> CPXPARAM_Read_APIEncoding                        "UTF-8"
Tried aggregator 3 times.
MIP Presolve eliminated 24118 rows and 37788 columns.
MIP Presolve modified 425 coefficients.
Aggregator did 690 substitutions.
Reduced MIP has 3114 rows, 3977 columns, and 11787 nonzeros.
Reduced MIP has 3767 binaries, 0 generals, 0 SOSs, and 0 indicators.
Presolve time = 0.06 sec. (49.93 ticks)
Found incumbent of value 227.340615 after 0.08 sec. (65.25 ticks)
Probing fixed 6 vars, tightened 0 bounds.
Probing time = 0.01 sec. (5.06 ticks)
Tried aggregator 1 time.
MIP Presolve eliminated 0 rows and 6 columns.
MIP Presolve modified 22 coefficients.
Reduced MIP has 3114 rows, 3971 columns, and 11775 nonzeros.
Reduced MIP has 3971 binaries, 0 generals, 0 SOSs, and 0 indicators.
Presolve time = 0.01 sec. (10.01 ticks)
Probing time = 0.01 sec. (2.82 ticks)
Clique table members: 6924.
MIP emphasis: balance optimality and feasibility.
MIP search method: dynamic search.
Parallel mode: none, using 1 thread.
Root relaxation solution time = 0.00 sec. (5.25 ticks)

        Nodes                                         Cuts/
   Node  Left     Objective  IInf  Best Integer    Best Bound    ItCnt     Gap

*     0+    0                          227.3406      -58.3103           125.65%
      0     0       10.8500    29      227.3406       10.8500       68   95.23%
*     0+    0                           70.3972       10.8500            84.59%
*     0+    0                           11.5128       10.8500             5.76%
      0     0        cutoff             11.5128                     68    0.00%
Elapsed time = 0.14 sec. (105.08 ticks, tree = 0.01 MB, solutions = 3)

Root node processing (before b&c):
  Real time             =    0.15 sec. (106.91 ticks)
Sequential b&c:
  Real time             =    0.00 sec. (0.00 ticks)
                          ------------
Total (root+branch&cut) =    0.15 sec. (106.91 ticks)

Solution pool: 3 solutions saved.

MIP - Integer optimal solution:  Objective =  1.1512823000e+01
Solution time =    0.15 sec.  Iterations = 68  Nodes = 0
Deterministic time = 107.03 ticks  (720.47 ticks/sec)

CPLEX> Incumbent solution written to file '/tmp/cmpl.T23360.gsol'.
CPLEX> 
CMPL: Time used for model generation: 1 seconds
CMPL: Time used for solving the model: 1 seconds


Solution written to ASCII file: results/output_generated_conf_0/2016-02-01-5/fair-nonlinear.sol

Solver - finished
